instances/knapsack/discrete_knapsack_uncertainty/knapsack_130_19.lp
\ Model knapsack_130_19
\ LP format - for model browsing. Use MPS format to capture full model detail.
\ Signature: 0x8c644a484ac146d4
Minimize
  - 81 x[0] - 38 x[1] - 59 x[2] - 87 x[3] - 49 x[4] - 48 x[5] - 97 x[6]
   - 51 x[7] - 26 x[8] - 2 x[9] - 14 x[10] - 78 x[11] - 46 x[12] - 13 x[13]
   - 2 x[14] - 11 x[15] - x[16] - 41 x[17] - 74 x[18] - 21 x[19] - 93 x[20]
   - 38 x[21] - 87 x[22] - 3 x[23] - 32 x[24] - 50 x[25] - 95 x[26]
   - 55 x[27] - 21 x[28] - 60 x[29] - 76 x[30] - 87 x[31] - 79 x[32]
   - 54 x[33] - 91 x[34] - 28 x[35] - 76 x[36] - 30 x[37] - 54 x[38]
   - 27 x[39] - 59 x[40] - 97 x[41] - 69 x[42] - 2 x[43] - 50 x[44]
   - 98 x[45] - 24 x[46] - 16 x[47] - 8 x[48] - 21 x[49] - 14 x[50]
   - 18 x[51] - 74 x[52] - 72 x[53] - 15 x[54] - 21 x[55] - 46 x[56]
   - 95 x[57] - 31 x[58] - 26 x[59] - 11 x[60] - 17 x[61] - 13 x[62]
   - 53 x[63] - 94 x[64] - 64 x[65] - 84 x[66] - 29 x[67] - 60 x[68]
   - 33 x[69] - 32 x[70] - 66 x[71] - 40 x[72] - 21 x[73] - 18 x[74]
   - 49 x[75] - 5 x[76] - 52 x[77] - 11 x[78] - 39 x[79] - 62 x[80]
   - 25 x[81] - 33 x[82] - 69 x[83] - 100 x[84] - 16 x[85] - 5 x[86]
   - 74 x[87] - 43 x[88] - 50 x[89] - 5 x[90] - 37 x[91] - 21 x[92]
   - 12 x[93] - 63 x[94] - 38 x[95] - 96 x[96] - 99 x[97] - 24 x[98]
   - 16 x[99] - 64 x[100] - 5 x[101] - 70 x[102] - 53 x[103] - 90 x[104]
   - 70 x[105] - 53 x[106] - 32 x[107] - 9 x[108] - 76 x[109] - 17 x[110]
   - 9 x[111] - 77 x[112] - 91 x[113] - 17 x[114] - 16 x[115] - 6 x[116]
   - 76 x[117] - 81 x[118] - 42 x[119] - 69 x[120] - 62 x[121] - x[122]
   - 34 x[123] - 55 x[124] - 76 x[125] - 60 x[126] - 25 x[127] - 55 x[128]
   - 16 x[129]
Subject To
 primal_upper: 23 x[0] + 71 x[1] + 89 x[2] + 22 x[3] + 67 x[4] + 41 x[5]
   + 76 x[6] + 63 x[7] + 4 x[8] + 65 x[9] + 75 x[10] + 62 x[11] + 7 x[12]
   + 55 x[13] + 64 x[14] + 84 x[15] + 16 x[16] + 79 x[17] + 52 x[18]
   + 85 x[19] + 84 x[20] + 63 x[21] + 71 x[22] + 38 x[23] + 72 x[24]
   + 47 x[25] + 41 x[26] + 99 x[27] + 17 x[28] + 98 x[29] + 93 x[30]
   + 55 x[31] + 31 x[32] + 60 x[33] + 39 x[34] + 88 x[35] + 71 x[36]
   + 96 x[37] + 47 x[38] + 62 x[39] + 98 x[40] + 85 x[41] + 21 x[42]
   + 57 x[43] + 98 x[44] + 34 x[45] + 17 x[46] + 53 x[47] + 98 x[48]
   + 63 x[49] + 26 x[50] + 91 x[51] + 92 x[52] + 91 x[53] + 100 x[54]
   + 71 x[55] + 8 x[56] + 42 x[57] + 55 x[58] + 73 x[59] + 40 x[60]
   + 6 x[61] + 3 x[62] + 14 x[63] + 39 x[64] + 59 x[65] + 88 x[66]
   + 58 x[67] + 47 x[68] + 41 x[69] + 33 x[70] + 17 x[71] + 97 x[72]
   + 94 x[73] + 59 x[74] + 40 x[75] + 42 x[76] + 78 x[77] + 68 x[78]
   + 26 x[79] + 73 x[80] + 41 x[81] + 58 x[82] + 81 x[83] + 81 x[84]
   + 93 x[85] + 47 x[86] + 83 x[87] + 25 x[88] + 54 x[89] + 96 x[90]
   + 48 x[91] + 4 x[92] + 3 x[93] + 15 x[94] + 48 x[95] + 68 x[96]
   + 36 x[97] + 11 x[98] + 51 x[99] + 32 x[100] + 59 x[101] + 81 x[102]
   + 67 x[103] + 16 x[104] + 65 x[105] + 2 x[106] + 70 x[107] + 38 x[108]
   + 32 x[109] + 42 x[110] + 18 x[111] + 96 x[112] + 4 x[113] + 52 x[114]
   + 38 x[115] + 74 x[116] + 92 x[117] + 100 x[118] + 88 x[119] + 15 x[120]
   + 84 x[121] + 75 x[122] + 58 x[123] + 100 x[124] + 34 x[125] + 7 x[126]
   + 51 x[127] + 26 x[128] + 14 x[129] + 2.3 r[0] + 7.1 r[1] + 8.9 r[2]
   + 2.2 r[3] + 6.7 r[4] + 4.1 r[5] + 7.6 r[6] + 6.3 r[7] + 0.4 r[8]
   + 6.5 r[9] + 7.5 r[10] + 6.2 r[11] + 0.7 r[12] + 5.5 r[13] + 6.4 r[14]
   + 8.4 r[15] + 1.6 r[16] + 7.9 r[17] + 5.2 r[18] + 8.5 r[19] + 8.4 r[20]
   + 6.3 r[21] + 7.1 r[22] + 3.8 r[23] + 7.2 r[24] + 4.7 r[25] + 4.1 r[26]
   + 9.9 r[27] + 1.7 r[28] + 9.8 r[29] + 9.3 r[30] + 5.5 r[31] + 3.1 r[32]
   + 6 r[33] + 3.9 r[34] + 8.8 r[35] + 7.1 r[36] + 9.6 r[37] + 4.7 r[38]
   + 6.2 r[39] + 9.8 r[40] + 8.5 r[41] + 2.1 r[42] + 5.7 r[43] + 9.8 r[44]
   + 3.4 r[45] + 1.7 r[46] + 5.3 r[47] + 9.8 r[48] + 6.3 r[49] + 2.6 r[50]
   + 9.1 r[51] + 9.2 r[52] + 9.1 r[53] + 10 r[54] + 7.1 r[55] + 0.8 r[56]
   + 4.2 r[57] + 5.5 r[58] + 7.3 r[59] + 4 r[60] + 0.6 r[61] + 0.3 r[62]
   + 1.4 r[63] + 3.9 r[64] + 5.9 r[65] + 8.8 r[66] + 5.8 r[67] + 4.7 r[68]
   + 4.1 r[69] + 3.3 r[70] + 1.7 r[71] + 9.7 r[72] + 9.4 r[73] + 5.9 r[74]
   + 4 r[75] + 4.2 r[76] + 7.8 r[77] + 6.8 r[78] + 2.6 r[79] + 7.3 r[80]
   + 4.1 r[81] + 5.8 r[82] + 8.1 r[83] + 8.1 r[84] + 9.3 r[85] + 4.7 r[86]
   + 8.3 r[87] + 2.5 r[88] + 5.4 r[89] + 9.6 r[90] + 4.8 r[91] + 0.4 r[92]
   + 0.3 r[93] + 1.5 r[94] + 4.8 r[95] + 6.8 r[96] + 3.6 r[97] + 1.1 r[98]
   + 5.1 r[99] + 3.2 r[100] + 5.9 r[101] + 8.1 r[102] + 6.7 r[103]
   + 1.6 r[104] + 6.5 r[105] + 0.2 r[106] + 7 r[107] + 3.8 r[108]
   + 3.2 r[109] + 4.2 r[110] + 1.8 r[111] + 9.6 r[112] + 0.4 r[113]
   + 5.2 r[114] + 3.8 r[115] + 7.4 r[116] + 9.2 r[117] + 10 r[118]
   + 8.8 r[119] + 1.5 r[120] + 8.4 r[121] + 7.5 r[122] + 5.8 r[123]
   + 10 r[124] + 3.4 r[125] + 0.7 r[126] + 5.1 r[127] + 2.6 r[128]
   + 1.4 r[129] <= 680
 primal_lower: 0.934295541607355 x[0] + 2.447225631285964 x[1]
   + 2.146845911860909 x[2] + 3.029172754817551 x[3]
   + 3.852560259715481 x[4] + 1.351030926223627 x[5]
   + 3.754433047471008 x[6] + 2.217956336839509 x[7]
   + 1.88755062017385 x[8] + 0.5141776695526959 x[9]
   + 2.585764422435958 x[10] + 3.278973823023888 x[11]
   + 2.23122742987308 x[12] + 0.1960175415925006 x[13]
   + 3.210039683192127 x[14] + 0.4408054039164055 x[15]
   + 2.427787311218095 x[16] + 1.338261236464122 x[17]
   + 4.050648319344512 x[18] + 3.606006432066428 x[19]
   + 0.4923699983830643 x[20] + 4.164131244222936 x[21]
   + 4.226788143675496 x[22] + 0.1394443426618812 x[23]
   + 1.551651040157426 x[24] + 2.967701801054623 x[25]
   + 0.3334640233089247 x[26] + 3.091127576580602 x[27]
   + 2.814664199730128 x[28] + 3.859614468200906 x[29]
   + 0.5311875702375539 x[30] + 0.2426202212466433 x[31]
   + 2.826625140109857 x[32] + 2.558055690723909 x[33]
   + 0.0960575532558664 x[34] + 2.509927355684869 x[35]
   + 3.44283186743159 x[36] + 1.362129446779145 x[37]
   + 0.7064474911942986 x[38] + 4.175872470098621 x[39]
   + 3.342759732125219 x[40] + 2.980146939979847 x[41]
   + 4.301332989526171 x[42] + 0.9700500738376212 x[43]
   + 2.11234245222508 x[44] + 4.060245700224973 x[45]
   + 1.856213094409224 x[46] + 3.119611071786763 x[47]
   + 3.344421192691615 x[48] + 1.069173889055591 x[49]
   + 0.8900277588311044 x[50] + 3.987589828705758 x[51]
   + 2.414254458379741 x[52] + 3.916275436689165 x[53]
   + 1.376817848301673 x[54] + 1.861191920003604 x[55]
   + 2.976493839152603 x[56] + 1.09355270718587 x[57]
   + 3.491470713992639 x[58] + 2.330684017065621 x[59]
   + 2.761103382152325 x[60] + 3.191021495549869 x[61]
   + 2.926187438836644 x[62] + 0.925345972521055 x[63]
   + 2.204588982606551 x[64] + 3.744434542008571 x[65]
   + 1.470102117976799 x[66] + 0.4809570180864122 x[67]
   + 1.89956369571869 x[68] + 0.6077927850722585 x[69]
   + 0.7930179676580293 x[70] + 1.191793809702373 x[71]
   + 1.097996785589166 x[72] + 2.278583500832542 x[73]
   + 3.127627464828374 x[74] + 3.507189380620359 x[75]
   + 1.710312054117263 x[76] + 4.083556105712417 x[77]
   + 0.4476110809173073 x[78] + 0.2523485796367674 x[79]
   + 1.560543018280826 x[80] + 0.1393570235678117 x[81]
   + 2.952702675824382 x[82] + 1.25916552418182 x[83]
   + 1.236987632295882 x[84] + 3.009261162885254 x[85]
   + 3.031281138461614 x[86] + 1.350107289836241 x[87]
   + 3.434452559270288 x[88] + 2.426898222537078 x[89]
   + 2.466106375569916 x[90] + 0.8669071449211551 x[91]
   + 4.290509671581201 x[92] + 1.219890918008655 x[93]
   + 0.5109922825668493 x[94] + 3.936386175572551 x[95]
   + 4.243766265672739 x[96] + 1.567546422132752 x[97]
   + 0.8284884642370826 x[98] + 0.8998256791337035 x[99]
   + 3.913550174213092 x[100] + 2.773294854076705 x[101]
   + 3.280257886099387 x[102] + 1.356422315225236 x[103]
   + 3.29396436172416 x[104] + 2.848429466217155 x[105]
   + 0.00230017426633061 x[106] + 0.8644955658154195 x[107]
   + 3.775393868701832 x[108] + 0.7513924745758184 x[109]
   + 1.39530767083191 x[110] + 1.993705638978607 x[111]
   + 1.788594611470038 x[112] + 2.786877042261366 x[113]
   + 3.871838196428951 x[114] + 3.690236867873666 x[115]
   + 0.8572679935039623 x[116] + 2.607885760528092 x[117]
   + 0.7699806080099645 x[118] + 0.73953801610576 x[119]
   + 1.749806360350975 x[120] + 2.543705491851639 x[121]
   + 0.4920851658889521 x[122] + 0.745920123073622 x[123]
   + 1.261020553783766 x[124] + 2.669824861058947 x[125]
   + 3.038944121117453 x[126] + 3.08230432093127 x[127]
   + 0.7123573196407091 x[128] + 1.868807178528985 x[129] + 4 u[0]
   + 97 u[1] + 87 u[2] + 40 u[3] + 41 u[4] + 54 u[5] + 82 u[6] + 56 u[7]
   + 94 u[8] + 99 u[9] + 24 u[10] + 36 u[11] + 17 u[12] + 21 u[13]
   + 45 u[14] + 13 u[15] + 50 u[16] + u[17] + 78 u[18] + 39 u[19]
   + 58 u[20] + 88 u[21] + 61 u[22] + 59 u[23] + 17 u[24] + 65 u[25]
   + 7 u[26] + 96 u[27] + 86 u[28] + 76 u[29] + 42 u[30] + 76 u[31]
   + 4 u[32] + 26 u[33] + 17 u[34] + 10 u[35] + 25 u[36] + 65 u[37]
   + 69 u[38] + 7 u[39] + 36 u[40] + 38 u[41] + 31 u[42] + 6 u[43]
   + 12 u[44] + 23 u[45] + 42 u[46] + 14 u[47] + 100 u[48] + 93 u[49]
   + 31 u[50] + 33 u[51] + 22 u[52] + 85 u[53] + 29 u[54] + 76 u[55]
   + 54 u[56] + 27 u[57] + 13 u[58] + 55 u[59] + 93 u[60] + 91 u[61]
   + 68 u[62] + 47 u[63] + 28 u[64] + 13 u[65] + 85 u[66] + 3 u[67]
   + 61 u[68] + 30 u[69] + 34 u[70] + 50 u[71] + 47 u[72] + 80 u[73]
   + 76 u[74] + 45 u[75] + 67 u[76] + 68 u[77] + 33 u[78] + 95 u[79]
   + 62 u[80] + 86 u[81] + 51 u[82] + 10 u[83] + 82 u[84] + 2 u[85]
   + 4 u[86] + 61 u[87] + 3 u[88] + 80 u[89] + 61 u[90] + u[91] + 81 u[92]
   + 32 u[93] + 33 u[94] + 78 u[95] + 58 u[96] + 13 u[97] + 5 u[98]
   + 9 u[99] + 30 u[100] + 29 u[101] + 7 u[102] + 93 u[103] + 66 u[104]
   + 23 u[105] + 84 u[106] + 31 u[107] + 71 u[108] + 58 u[109] + 63 u[110]
   + 64 u[111] + 50 u[112] + 22 u[113] + 42 u[114] + 19 u[115] + 44 u[116]
   + 94 u[117] + 38 u[118] + 37 u[119] + 16 u[120] + 41 u[121] + 4 u[122]
   + 47 u[123] + 14 u[124] + 79 u[125] + 52 u[126] + 56 u[127] + 31 u[128]
   + 100 u[129] <= 67959
 mccormick1[0]: - u[0] + r[0] <= 0
 mccormick1[1]: - u[1] + r[1] <= 0
 mccormick1[2]: - u[2] + r[2] <= 0
 mccormick1[3]: - u[3] + r[3] <= 0
 mccormick1[4]: - u[4] + r[4] <= 0
 mccormick1[5]: - u[5] + r[5] <= 0
 mccormick1[6]: - u[6] + r[6] <= 0
 mccormick1[7]: - u[7] + r[7] <= 0
 mccormick1[8]: - u[8] + r[8] <= 0
 mccormick1[9]: - u[9] + r[9] <= 0
 mccormick1[10]: - u[10] + r[10] <= 0
 mccormick1[11]: - u[11] + r[11] <= 0
 mccormick1[12]: - u[12] + r[12] <= 0
 mccormick1[13]: - u[13] + r[13] <= 0
 mccormick1[14]: - u[14] + r[14] <= 0
 mccormick1[15]: - u[15] + r[15] <= 0
 mccormick1[16]: - u[16] + r[16] <= 0
 mccormick1[17]: - u[17] + r[17] <= 0
 mccormick1[18]: - u[18] + r[18] <= 0
 mccormick1[19]: - u[19] + r[19] <= 0
 mccormick1[20]: - u[20] + r[20] <= 0
 mccormick1[21]: - u[21] + r[21] <= 0
 mccormick1[22]: - u[22] + r[22] <= 0
 mccormick1[23]: - u[23] + r[23] <= 0
 mccormick1[24]: - u[24] + r[24] <= 0
 mccormick1[25]: - u[25] + r[25] <= 0
 mccormick1[26]: - u[26] + r[26] <= 0
 mccormick1[27]: - u[27] + r[27] <= 0
 mccormick1[28]: - u[28] + r[28] <= 0
 mccormick1[29]: - u[29] + r[29] <= 0
 mccormick1[30]: - u[30] + r[30] <= 0
 mccormick1[31]: - u[31] + r[31] <= 0
 mccormick1[32]: - u[32] + r[32] <= 0
 mccormick1[33]: - u[33] + r[33] <= 0
 mccormick1[34]: - u[34] + r[34] <= 0
 mccormick1[35]: - u[35] + r[35] <= 0
 mccormick1[36]: - u[36] + r[36] <= 0
 mccormick1[37]: - u[37] + r[37] <= 0
 mccormick1[38]: - u[38] + r[38] <= 0
 mccormick1[39]: - u[39] + r[39] <= 0
 mccormick1[40]: - u[40] + r[40] <= 0
 mccormick1[41]: - u[41] + r[41] <= 0
 mccormick1[42]: - u[42] + r[42] <= 0
 mccormick1[43]: - u[43] + r[43] <= 0
 mccormick1[44]: - u[44] + r[44] <= 0
 mccormick1[45]: - u[45] + r[45] <= 0
 mccormick1[46]: - u[46] + r[46] <= 0
 mccormick1[47]: - u[47] + r[47] <= 0
 mccormick1[48]: - u[48] + r[48] <= 0
 mccormick1[49]: - u[49] + r[49] <= 0
 mccormick1[50]: - u[50] + r[50] <= 0
 mccormick1[51]: - u[51] + r[51] <= 0
 mccormick1[52]: - u[52] + r[52] <= 0
 mccormick1[53]: - u[53] + r[53] <= 0
 mccormick1[54]: - u[54] + r[54] <= 0
 mccormick1[55]: - u[55] + r[55] <= 0
 mccormick1[56]: - u[56] + r[56] <= 0
 mccormick1[57]: - u[57] + r[57] <= 0
 mccormick1[58]: - u[58] + r[58] <= 0
 mccormick1[59]: - u[59] + r[59] <= 0
 mccormick1[60]: - u[60] + r[60] <= 0
 mccormick1[61]: - u[61] + r[61] <= 0
 mccormick1[62]: - u[62] + r[62] <= 0
 mccormick1[63]: - u[63] + r[63] <= 0
 mccormick1[64]: - u[64] + r[64] <= 0
 mccormick1[65]: - u[65] + r[65] <= 0
 mccormick1[66]: - u[66] + r[66] <= 0
 mccormick1[67]: - u[67] + r[67] <= 0
 mccormick1[68]: - u[68] + r[68] <= 0
 mccormick1[69]: - u[69] + r[69] <= 0
 mccormick1[70]: - u[70] + r[70] <= 0
 mccormick1[71]: - u[71] + r[71] <= 0
 mccormick1[72]: - u[72] + r[72] <= 0
 mccormick1[73]: - u[73] + r[73] <= 0
 mccormick1[74]: - u[74] + r[74] <= 0
 mccormick1[75]: - u[75] + r[75] <= 0
 mccormick1[76]: - u[76] + r[76] <= 0
 mccormick1[77]: - u[77] + r[77] <= 0
 mccormick1[78]: - u[78] + r[78] <= 0
 mccormick1[79]: - u[79] + r[79] <= 0
 mccormick1[80]: - u[80] + r[80] <= 0
 mccormick1[81]: - u[81] + r[81] <= 0
 mccormick1[82]: - u[82] + r[82] <= 0
 mccormick1[83]: - u[83] + r[83] <= 0
 mccormick1[84]: - u[84] + r[84] <= 0
 mccormick1[85]: - u[85] + r[85] <= 0
 mccormick1[86]: - u[86] + r[86] <= 0
 mccormick1[87]: - u[87] + r[87] <= 0
 mccormick1[88]: - u[88] + r[88] <= 0
 mccormick1[89]: - u[89] + r[89] <= 0
 mccormick1[90]: - u[90] + r[90] <= 0
 mccormick1[91]: - u[91] + r[91] <= 0
 mccormick1[92]: - u[92] + r[92] <= 0
 mccormick1[93]: - u[93] + r[93] <= 0
 mccormick1[94]: - u[94] + r[94] <= 0
 mccormick1[95]: - u[95] + r[95] <= 0
 mccormick1[96]: - u[96] + r[96] <= 0
 mccormick1[97]: - u[97] + r[97] <= 0
 mccormick1[98]: - u[98] + r[98] <= 0
 mccormick1[99]: - u[99] + r[99] <= 0
 mccormick1[100]: - u[100] + r[100] <= 0
 mccormick1[101]: - u[101] + r[101] <= 0
 mccormick1[102]: - u[102] + r[102] <= 0
 mccormick1[103]: - u[103] + r[103] <= 0
 mccormick1[104]: - u[104] + r[104] <= 0
 mccormick1[105]: - u[105] + r[105] <= 0
 mccormick1[106]: - u[106] + r[106] <= 0
 mccormick1[107]: - u[107] + r[107] <= 0
 mccormick1[108]: - u[108] + r[108] <= 0
 mccormick1[109]: - u[109] + r[109] <= 0
 mccormick1[110]: - u[110] + r[110] <= 0
 mccormick1[111]: - u[111] + r[111] <= 0
 mccormick1[112]: - u[112] + r[112] <= 0
 mccormick1[113]: - u[113] + r[113] <= 0
 mccormick1[114]: - u[114] + r[114] <= 0
 mccormick1[115]: - u[115] + r[115] <= 0
 mccormick1[116]: - u[116] + r[116] <= 0
 mccormick1[117]: - u[117] + r[117] <= 0
 mccormick1[118]: - u[118] + r[118] <= 0
 mccormick1[119]: - u[119] + r[119] <= 0
 mccormick1[120]: - u[120] + r[120] <= 0
 mccormick1[121]: - u[121] + r[121] <= 0
 mccormick1[122]: - u[122] + r[122] <= 0
 mccormick1[123]: - u[123] + r[123] <= 0
 mccormick1[124]: - u[124] + r[124] <= 0
 mccormick1[125]: - u[125] + r[125] <= 0
 mccormick1[126]: - u[126] + r[126] <= 0
 mccormick1[127]: - u[127] + r[127] <= 0
 mccormick1[128]: - u[128] + r[128] <= 0
 mccormick1[129]: - u[129] + r[129] <= 0
 mccormick2[0]: - x[0] + r[0] <= 0
 mccormick2[1]: - x[1] + r[1] <= 0
 mccormick2[2]: - x[2] + r[2] <= 0
 mccormick2[3]: - x[3] + r[3] <= 0
 mccormick2[4]: - x[4] + r[4] <= 0
 mccormick2[5]: - x[5] + r[5] <= 0
 mccormick2[6]: - x[6] + r[6] <= 0
 mccormick2[7]: - x[7] + r[7] <= 0
 mccormick2[8]: - x[8] + r[8] <= 0
 mccormick2[9]: - x[9] + r[9] <= 0
 mccormick2[10]: - x[10] + r[10] <= 0
 mccormick2[11]: - x[11] + r[11] <= 0
 mccormick2[12]: - x[12] + r[12] <= 0
 mccormick2[13]: - x[13] + r[13] <= 0
 mccormick2[14]: - x[14] + r[14] <= 0
 mccormick2[15]: - x[15] + r[15] <= 0
 mccormick2[16]: - x[16] + r[16] <= 0
 mccormick2[17]: - x[17] + r[17] <= 0
 mccormick2[18]: - x[18] + r[18] <= 0
 mccormick2[19]: - x[19] + r[19] <= 0
 mccormick2[20]: - x[20] + r[20] <= 0
 mccormick2[21]: - x[21] + r[21] <= 0
 mccormick2[22]: - x[22] + r[22] <= 0
 mccormick2[23]: - x[23] + r[23] <= 0
 mccormick2[24]: - x[24] + r[24] <= 0
 mccormick2[25]: - x[25] + r[25] <= 0
 mccormick2[26]: - x[26] + r[26] <= 0
 mccormick2[27]: - x[27] + r[27] <= 0
 mccormick2[28]: - x[28] + r[28] <= 0
 mccormick2[29]: - x[29] + r[29] <= 0
 mccormick2[30]: - x[30] + r[30] <= 0
 mccormick2[31]: - x[31] + r[31] <= 0
 mccormick2[32]: - x[32] + r[32] <= 0
 mccormick2[33]: - x[33] + r[33] <= 0
 mccormick2[34]: - x[34] + r[34] <= 0
 mccormick2[35]: - x[35] + r[35] <= 0
 mccormick2[36]: - x[36] + r[36] <= 0
 mccormick2[37]: - x[37] + r[37] <= 0
 mccormick2[38]: - x[38] + r[38] <= 0
 mccormick2[39]: - x[39] + r[39] <= 0
 mccormick2[40]: - x[40] + r[40] <= 0
 mccormick2[41]: - x[41] + r[41] <= 0
 mccormick2[42]: - x[42] + r[42] <= 0
 mccormick2[43]: - x[43] + r[43] <= 0
 mccormick2[44]: - x[44] + r[44] <= 0
 mccormick2[45]: - x[45] + r[45] <= 0
 mccormick2[46]: - x[46] + r[46] <= 0
 mccormick2[47]: - x[47] + r[47] <= 0
 mccormick2[48]: - x[48] + r[48] <= 0
 mccormick2[49]: - x[49] + r[49] <= 0
 mccormick2[50]: - x[50] + r[50] <= 0
 mccormick2[51]: - x[51] + r[51] <= 0
 mccormick2[52]: - x[52] + r[52] <= 0
 mccormick2[53]: - x[53] + r[53] <= 0
 mccormick2[54]: - x[54] + r[54] <= 0
 mccormick2[55]: - x[55] + r[55] <= 0
 mccormick2[56]: - x[56] + r[56] <= 0
 mccormick2[57]: - x[57] + r[57] <= 0
 mccormick2[58]: - x[58] + r[58] <= 0
 mccormick2[59]: - x[59] + r[59] <= 0
 mccormick2[60]: - x[60] + r[60] <= 0
 mccormick2[61]: - x[61] + r[61] <= 0
 mccormick2[62]: - x[62] + r[62] <= 0
 mccormick2[63]: - x[63] + r[63] <= 0
 mccormick2[64]: - x[64] + r[64] <= 0
 mccormick2[65]: - x[65] + r[65] <= 0
 mccormick2[66]: - x[66] + r[66] <= 0
 mccormick2[67]: - x[67] + r[67] <= 0
 mccormick2[68]: - x[68] + r[68] <= 0
 mccormick2[69]: - x[69] + r[69] <= 0
 mccormick2[70]: - x[70] + r[70] <= 0
 mccormick2[71]: - x[71] + r[71] <= 0
 mccormick2[72]: - x[72] + r[72] <= 0
 mccormick2[73]: - x[73] + r[73] <= 0
 mccormick2[74]: - x[74] + r[74] <= 0
 mccormick2[75]: - x[75] + r[75] <= 0
 mccormick2[76]: - x[76] + r[76] <= 0
 mccormick2[77]: - x[77] + r[77] <= 0
 mccormick2[78]: - x[78] + r[78] <= 0
 mccormick2[79]: - x[79] + r[79] <= 0
 mccormick2[80]: - x[80] + r[80] <= 0
 mccormick2[81]: - x[81] + r[81] <= 0
 mccormick2[82]: - x[82] + r[82] <= 0
 mccormick2[83]: - x[83] + r[83] <= 0
 mccormick2[84]: - x[84] + r[84] <= 0
 mccormick2[85]: - x[85] + r[85] <= 0
 mccormick2[86]: - x[86] + r[86] <= 0
 mccormick2[87]: - x[87] + r[87] <= 0
 mccormick2[88]: - x[88] + r[88] <= 0
 mccormick2[89]: - x[89] + r[89] <= 0
 mccormick2[90]: - x[90] + r[90] <= 0
 mccormick2[91]: - x[91] + r[91] <= 0
 mccormick2[92]: - x[92] + r[92] <= 0
 mccormick2[93]: - x[93] + r[93] <= 0
 mccormick2[94]: - x[94] + r[94] <= 0
 mccormick2[95]: - x[95] + r[95] <= 0
 mccormick2[96]: - x[96] + r[96] <= 0
 mccormick2[97]: - x[97] + r[97] <= 0
 mccormick2[98]: - x[98] + r[98] <= 0
 mccormick2[99]: - x[99] + r[99] <= 0
 mccormick2[100]: - x[100] + r[100] <= 0
 mccormick2[101]: - x[101] + r[101] <= 0
 mccormick2[102]: - x[102] + r[102] <= 0
 mccormick2[103]: - x[103] + r[103] <= 0
 mccormick2[104]: - x[104] + r[104] <= 0
 mccormick2[105]: - x[105] + r[105] <= 0
 mccormick2[106]: - x[106] + r[106] <= 0
 mccormick2[107]: - x[107] + r[107] <= 0
 mccormick2[108]: - x[108] + r[108] <= 0
 mccormick2[109]: - x[109] + r[109] <= 0
 mccormick2[110]: - x[110] + r[110] <= 0
 mccormick2[111]: - x[111] + r[111] <= 0
 mccormick2[112]: - x[112] + r[112] <= 0
 mccormick2[113]: - x[113] + r[113] <= 0
 mccormick2[114]: - x[114] + r[114] <= 0
 mccormick2[115]: - x[115] + r[115] <= 0
 mccormick2[116]: - x[116] + r[116] <= 0
 mccormick2[117]: - x[117] + r[117] <= 0
 mccormick2[118]: - x[118] + r[118] <= 0
 mccormick2[119]: - x[119] + r[119] <= 0
 mccormick2[120]: - x[120] + r[120] <= 0
 mccormick2[121]: - x[121] + r[121] <= 0
 mccormick2[122]: - x[122] + r[122] <= 0
 mccormick2[123]: - x[123] + r[123] <= 0
 mccormick2[124]: - x[124] + r[124] <= 0
 mccormick2[125]: - x[125] + r[125] <= 0
 mccormick2[126]: - x[126] + r[126] <= 0
 mccormick2[127]: - x[127] + r[127] <= 0
 mccormick2[128]: - x[128] + r[128] <= 0
 mccormick2[129]: - x[129] + r[129] <= 0
 mccormick3[0]: x[0] + u[0] - r[0] <= 1
 mccormick3[1]: x[1] + u[1] - r[1] <= 1
 mccormick3[2]: x[2] + u[2] - r[2] <= 1
 mccormick3[3]: x[3] + u[3] - r[3] <= 1
 mccormick3[4]: x[4] + u[4] - r[4] <= 1
 mccormick3[5]: x[5] + u[5] - r[5] <= 1
 mccormick3[6]: x[6] + u[6] - r[6] <= 1
 mccormick3[7]: x[7] + u[7] - r[7] <= 1
 mccormick3[8]: x[8] + u[8] - r[8] <= 1
 mccormick3[9]: x[9] + u[9] - r[9] <= 1
 mccormick3[10]: x[10] + u[10] - r[10] <= 1
 mccormick3[11]: x[11] + u[11] - r[11] <= 1
 mccormick3[12]: x[12] + u[12] - r[12] <= 1
 mccormick3[13]: x[13] + u[13] - r[13] <= 1
 mccormick3[14]: x[14] + u[14] - r[14] <= 1
 mccormick3[15]: x[15] + u[15] - r[15] <= 1
 mccormick3[16]: x[16] + u[16] - r[16] <= 1
 mccormick3[17]: x[17] + u[17] - r[17] <= 1
 mccormick3[18]: x[18] + u[18] - r[18] <= 1
 mccormick3[19]: x[19] + u[19] - r[19] <= 1
 mccormick3[20]: x[20] + u[20] - r[20] <= 1
 mccormick3[21]: x[21] + u[21] - r[21] <= 1
 mccormick3[22]: x[22] + u[22] - r[22] <= 1
 mccormick3[23]: x[23] + u[23] - r[23] <= 1
 mccormick3[24]: x[24] + u[24] - r[24] <= 1
 mccormick3[25]: x[25] + u[25] - r[25] <= 1
 mccormick3[26]: x[26] + u[26] - r[26] <= 1
 mccormick3[27]: x[27] + u[27] - r[27] <= 1
 mccormick3[28]: x[28] + u[28] - r[28] <= 1
 mccormick3[29]: x[29] + u[29] - r[29] <= 1
 mccormick3[30]: x[30] + u[30] - r[30] <= 1
 mccormick3[31]: x[31] + u[31] - r[31] <= 1
 mccormick3[32]: x[32] + u[32] - r[32] <= 1
 mccormick3[33]: x[33] + u[33] - r[33] <= 1
 mccormick3[34]: x[34] + u[34] - r[34] <= 1
 mccormick3[35]: x[35] + u[35] - r[35] <= 1
 mccormick3[36]: x[36] + u[36] - r[36] <= 1
 mccormick3[37]: x[37] + u[37] - r[37] <= 1
 mccormick3[38]: x[38] + u[38] - r[38] <= 1
 mccormick3[39]: x[39] + u[39] - r[39] <= 1
 mccormick3[40]: x[40] + u[40] - r[40] <= 1
 mccormick3[41]: x[41] + u[41] - r[41] <= 1
 mccormick3[42]: x[42] + u[42] - r[42] <= 1
 mccormick3[43]: x[43] + u[43] - r[43] <= 1
 mccormick3[44]: x[44] + u[44] - r[44] <= 1
 mccormick3[45]: x[45] + u[45] - r[45] <= 1
 mccormick3[46]: x[46] + u[46] - r[46] <= 1
 mccormick3[47]: x[47] + u[47] - r[47] <= 1
 mccormick3[48]: x[48] + u[48] - r[48] <= 1
 mccormick3[49]: x[49] + u[49] - r[49] <= 1
 mccormick3[50]: x[50] + u[50] - r[50] <= 1
 mccormick3[51]: x[51] + u[51] - r[51] <= 1
 mccormick3[52]: x[52] + u[52] - r[52] <= 1
 mccormick3[53]: x[53] + u[53] - r[53] <= 1
 mccormick3[54]: x[54] + u[54] - r[54] <= 1
 mccormick3[55]: x[55] + u[55] - r[55] <= 1
 mccormick3[56]: x[56] + u[56] - r[56] <= 1
 mccormick3[57]: x[57] + u[57] - r[57] <= 1
 mccormick3[58]: x[58] + u[58] - r[58] <= 1
 mccormick3[59]: x[59] + u[59] - r[59] <= 1
 mccormick3[60]: x[60] + u[60] - r[60] <= 1
 mccormick3[61]: x[61] + u[61] - r[61] <= 1
 mccormick3[62]: x[62] + u[62] - r[62] <= 1
 mccormick3[63]: x[63] + u[63] - r[63] <= 1
 mccormick3[64]: x[64] + u[64] - r[64] <= 1
 mccormick3[65]: x[65] + u[65] - r[65] <= 1
 mccormick3[66]: x[66] + u[66] - r[66] <= 1
 mccormick3[67]: x[67] + u[67] - r[67] <= 1
 mccormick3[68]: x[68] + u[68] - r[68] <= 1
 mccormick3[69]: x[69] + u[69] - r[69] <= 1
 mccormick3[70]: x[70] + u[70] - r[70] <= 1
 mccormick3[71]: x[71] + u[71] - r[71] <= 1
 mccormick3[72]: x[72] + u[72] - r[72] <= 1
 mccormick3[73]: x[73] + u[73] - r[73] <= 1
 mccormick3[74]: x[74] + u[74] - r[74] <= 1
 mccormick3[75]: x[75] + u[75] - r[75] <= 1
 mccormick3[76]: x[76] + u[76] - r[76] <= 1
 mccormick3[77]: x[77] + u[77] - r[77] <= 1
 mccormick3[78]: x[78] + u[78] - r[78] <= 1
 mccormick3[79]: x[79] + u[79] - r[79] <= 1
 mccormick3[80]: x[80] + u[80] - r[80] <= 1
 mccormick3[81]: x[81] + u[81] - r[81] <= 1
 mccormick3[82]: x[82] + u[82] - r[82] <= 1
 mccormick3[83]: x[83] + u[83] - r[83] <= 1
 mccormick3[84]: x[84] + u[84] - r[84] <= 1
 mccormick3[85]: x[85] + u[85] - r[85] <= 1
 mccormick3[86]: x[86] + u[86] - r[86] <= 1
 mccormick3[87]: x[87] + u[87] - r[87] <= 1
 mccormick3[88]: x[88] + u[88] - r[88] <= 1
 mccormick3[89]: x[89] + u[89] - r[89] <= 1
 mccormick3[90]: x[90] + u[90] - r[90] <= 1
 mccormick3[91]: x[91] + u[91] - r[91] <= 1
 mccormick3[92]: x[92] + u[92] - r[92] <= 1
 mccormick3[93]: x[93] + u[93] - r[93] <= 1
 mccormick3[94]: x[94] + u[94] - r[94] <= 1
 mccormick3[95]: x[95] + u[95] - r[95] <= 1
 mccormick3[96]: x[96] + u[96] - r[96] <= 1
 mccormick3[97]: x[97] + u[97] - r[97] <= 1
 mccormick3[98]: x[98] + u[98] - r[98] <= 1
 mccormick3[99]: x[99] + u[99] - r[99] <= 1
 mccormick3[100]: x[100] + u[100] - r[100] <= 1
 mccormick3[101]: x[101] + u[101] - r[101] <= 1
 mccormick3[102]: x[102] + u[102] - r[102] <= 1
 mccormick3[103]: x[103] + u[103] - r[103] <= 1
 mccormick3[104]: x[104] + u[104] - r[104] <= 1
 mccormick3[105]: x[105] + u[105] - r[105] <= 1
 mccormick3[106]: x[106] + u[106] - r[106] <= 1
 mccormick3[107]: x[107] + u[107] - r[107] <= 1
 mccormick3[108]: x[108] + u[108] - r[108] <= 1
 mccormick3[109]: x[109] + u[109] - r[109] <= 1
 mccormick3[110]: x[110] + u[110] - r[110] <= 1
 mccormick3[111]: x[111] + u[111] - r[111] <= 1
 mccormick3[112]: x[112] + u[112] - r[112] <= 1
 mccormick3[113]: x[113] + u[113] - r[113] <= 1
 mccormick3[114]: x[114] + u[114] - r[114] <= 1
 mccormick3[115]: x[115] + u[115] - r[115] <= 1
 mccormick3[116]: x[116] + u[116] - r[116] <= 1
 mccormick3[117]: x[117] + u[117] - r[117] <= 1
 mccormick3[118]: x[118] + u[118] - r[118] <= 1
 mccormick3[119]: x[119] + u[119] - r[119] <= 1
 mccormick3[120]: x[120] + u[120] - r[120] <= 1
 mccormick3[121]: x[121] + u[121] - r[121] <= 1
 mccormick3[122]: x[122] + u[122] - r[122] <= 1
 mccormick3[123]: x[123] + u[123] - r[123] <= 1
 mccormick3[124]: x[124] + u[124] - r[124] <= 1
 mccormick3[125]: x[125] + u[125] - r[125] <= 1
 mccormick3[126]: x[126] + u[126] - r[126] <= 1
 mccormick3[127]: x[127] + u[127] - r[127] <= 1
 mccormick3[128]: x[128] + u[128] - r[128] <= 1
 mccormick3[129]: x[129] + u[129] - r[129] <= 1
Bounds
Binaries
 x[0] x[1] x[2] x[3] x[4] x[5] x[6] x[7] x[8] x[9] x[10] x[11] x[12] x[13]
 x[14] x[15] x[16] x[17] x[18] x[19] x[20] x[21] x[22] x[23] x[24] x[25]
 x[26] x[27] x[28] x[29] x[30] x[31] x[32] x[33] x[34] x[35] x[36] x[37]
 x[38] x[39] x[40] x[41] x[42] x[43] x[44] x[45] x[46] x[47] x[48] x[49]
 x[50] x[51] x[52] x[53] x[54] x[55] x[56] x[57] x[58] x[59] x[60] x[61]
 x[62] x[63] x[64] x[65] x[66] x[67] x[68] x[69] x[70] x[71] x[72] x[73]
 x[74] x[75] x[76] x[77] x[78] x[79] x[80] x[81] x[82] x[83] x[84] x[85]
 x[86] x[87] x[88] x[89] x[90] x[91] x[92] x[93] x[94] x[95] x[96] x[97]
 x[98] x[99] x[100] x[101] x[102] x[103] x[104] x[105] x[106] x[107] x[108]
 x[109] x[110] x[111] x[112] x[113] x[114] x[115] x[116] x[117] x[118]
 x[119] x[120] x[121] x[122] x[123] x[124] x[125] x[126] x[127] x[128]
 x[129] u[0] u[1] u[2] u[3] u[4] u[5] u[6] u[7] u[8] u[9] u[10] u[11] u[12]
 u[13] u[14] u[15] u[16] u[17] u[18] u[19] u[20] u[21] u[22] u[23] u[24]
 u[25] u[26] u[27] u[28] u[29] u[30] u[31] u[32] u[33] u[34] u[35] u[36]
 u[37] u[38] u[39] u[40] u[41] u[42] u[43] u[44] u[45] u[46] u[47] u[48]
 u[49] u[50] u[51] u[52] u[53] u[54] u[55] u[56] u[57] u[58] u[59] u[60]
 u[61] u[62] u[63] u[64] u[65] u[66] u[67] u[68] u[69] u[70] u[71] u[72]
 u[73] u[74] u[75] u[76] u[77] u[78] u[79] u[80] u[81] u[82] u[83] u[84]
 u[85] u[86] u[87] u[88] u[89] u[90] u[91] u[92] u[93] u[94] u[95] u[96]
 u[97] u[98] u[99] u[100] u[101] u[102] u[103] u[104] u[105] u[106] u[107]
 u[108] u[109] u[110] u[111] u[112] u[113] u[114] u[115] u[116] u[117]
 u[118] u[119] u[120] u[121] u[122] u[123] u[124] u[125] u[126] u[127]
 u[128] u[129] r[0] r[1] r[2] r[3] r[4] r[5] r[6] r[7] r[8] r[9] r[10]
 r[11] r[12] r[13] r[14] r[15] r[16] r[17] r[18] r[19] r[20] r[21] r[22]
 r[23] r[24] r[25] r[26] r[27] r[28] r[29] r[30] r[31] r[32] r[33] r[34]
 r[35] r[36] r[37] r[38] r[39] r[40] r[41] r[42] r[43] r[44] r[45] r[46]
 r[47] r[48] r[49] r[50] r[51] r[52] r[53] r[54] r[55] r[56] r[57] r[58]
 r[59] r[60] r[61] r[62] r[63] r[64] r[65] r[66] r[67] r[68] r[69] r[70]
 r[71] r[72] r[73] r[74] r[75] r[76] r[77] r[78] r[79] r[80] r[81] r[82]
 r[83] r[84] r[85] r[86] r[87] r[88] r[89] r[90] r[91] r[92] r[93] r[94]
 r[95] r[96] r[97] r[98] r[99] r[100] r[101] r[102] r[103] r[104] r[105]
 r[106] r[107] r[108] r[109] r[110] r[111] r[112] r[113] r[114] r[115]
 r[116] r[117] r[118] r[119] r[120] r[121] r[122] r[123] r[124] r[125]
 r[126] r[127] r[128] r[129]
End
