instances/knapsack/discrete_knapsack_uncertainty/knapsack_130_19.kp
14160
130
680

23 2.3 81
71 7.1 38
89 8.9 59
22 2.2 87
67 6.7 49
41 4.1 48
76 7.6 97
63 6.3 51
4 0.4 26
65 6.5 2
75 7.5 14
62 6.2 78
7 0.7 46
55 5.5 13
64 6.4 2
84 8.4 11
16 1.6 1
79 7.9 41
52 5.2 74
85 8.5 21
84 8.4 93
63 6.3 38
71 7.1 87
38 3.8 3
72 7.2 32
47 4.7 50
41 4.1 95
99 9.9 55
17 1.7 21
98 9.8 60
93 9.3 76
55 5.5 87
31 3.1 79
60 6.0 54
39 3.9 91
88 8.8 28
71 7.1 76
96 9.6 30
47 4.7 54
62 6.2 27
98 9.8 59
85 8.5 97
21 2.1 69
57 5.7 2
98 9.8 50
34 3.4 98
17 1.7 24
53 5.3 16
98 9.8 8
63 6.3 21
26 2.6 14
91 9.1 18
92 9.2 74
91 9.1 72
100 10.0 15
71 7.1 21
8 0.8 46
42 4.2 95
55 5.5 31
73 7.3 26
40 4.0 11
6 0.6 17
3 0.3 13
14 1.4 53
39 3.9 94
59 5.9 64
88 8.8 84
58 5.8 29
47 4.7 60
41 4.1 33
33 3.3 32
17 1.7 66
97 9.7 40
94 9.4 21
59 5.9 18
40 4.0 49
42 4.2 5
78 7.8 52
68 6.8 11
26 2.6 39
73 7.3 62
41 4.1 25
58 5.8 33
81 8.1 69
81 8.1 100
93 9.3 16
47 4.7 5
83 8.3 74
25 2.5 43
54 5.4 50
96 9.6 5
48 4.8 37
4 0.4 21
3 0.3 12
15 1.5 63
48 4.8 38
68 6.8 96
36 3.6 99
11 1.1 24
51 5.1 16
32 3.2 64
59 5.9 5
81 8.1 70
67 6.7 53
16 1.6 90
65 6.5 70
2 0.2 53
70 7.0 32
38 3.8 9
32 3.2 76
42 4.2 17
18 1.8 9
96 9.6 77
4 0.4 91
52 5.2 17
38 3.8 16
74 7.4 6
92 9.2 76
100 10.0 81
88 8.8 42
15 1.5 69
84 8.4 62
75 7.5 1
58 5.8 34
100 10.0 55
34 3.4 76
7 0.7 60
51 5.1 25
26 2.6 55
14 1.4 16

67959
579

[0.934295541607355 2.4472256312859644 2.146845911860909 3.029172754817551 3.852560259715481 1.351030926223627 3.7544330474710077 2.2179563368395088 1.8875506201738503 0.514177669552696 2.5857644224359584 3.278973823023888 2.2312274298730803 0.19601754159250057 3.210039683192127 0.44080540391640555 2.427787311218095 1.3382612364641218 4.0506483193445115 3.6060064320664282 0.4923699983830643 4.164131244222936 4.226788143675496 0.13944434266188116 1.5516510401574257 2.9677018010546234 0.3334640233089247 3.0911275765806017 2.8146641997301285 3.859614468200906 0.5311875702375539 0.24262022124664326 2.8266251401098565 2.558055690723909 0.09605755325586642 2.5099273556848694 3.44283186743159 1.3621294467791447 0.7064474911942986 4.1758724700986205 3.342759732125219 2.980146939979847 4.301332989526171 0.9700500738376212 2.1123424522250804 4.060245700224973 1.8562130944092239 3.119611071786763 3.344421192691615 1.0691738890555909 0.8900277588311044 3.9875898287057576 2.414254458379741 3.9162754366891654 1.3768178483016726 1.861191920003604 2.9764938391526035 1.0935527071858704 3.4914707139926393 2.330684017065621 2.7611033821523248 3.191021495549869 2.9261874388366436 0.925345972521055 2.2045889826065506 3.7444345420085714 1.4701021179767988 0.4809570180864122 1.8995636957186897 0.6077927850722585 0.7930179676580293 1.1917938097023728 1.0979967855891657 2.2785835008325424 3.1276274648283735 3.507189380620359 1.7103120541172634 4.083556105712417 0.44761108091730734 0.25234857963676743 1.5605430182808258 0.13935702356781168 2.9527026758243817 1.2591655241818203 1.236987632295882 3.009261162885254 3.0312811384616136 1.3501072898362414 3.4344525592702877 2.426898222537078 2.4661063755699164 0.8669071449211551 4.2905096715812014 1.2198909180086548 0.5109922825668493 3.9363861755725513 4.243766265672739 1.5675464221327515 0.8284884642370826 0.8998256791337035 3.913550174213092 2.7732948540767053 3.2802578860993874 1.3564223152252364 3.2939643617241603 2.848429466217155 0.0023001742663306124 0.8644955658154195 3.775393868701832 0.7513924745758184 1.39530767083191 1.993705638978607 1.788594611470038 2.7868770422613656 3.871838196428951 3.6902368678736663 0.8572679935039623 2.6078857605280916 0.7699806080099645 0.73953801610576 1.7498063603509748 2.5437054918516386 0.4920851658889521 0.745920123073622 1.2610205537837664 2.669824861058947 3.038944121117453 3.0823043209312697 0.7123573196407091 1.8688071785289848]

[4 97 87 40 41 54 82 56 94 99 24 36 17 21 45 13 50 1 78 39 58 88 61 59 17 65 7 96 86 76 42 76 4 26 17 10 25 65 69 7 36 38 31 6 12 23 42 14 100 93 31 33 22 85 29 76 54 27 13 55 93 91 68 47 28 13 85 3 61 30 34 50 47 80 76 45 67 68 33 95 62 86 51 10 82 2 4 61 3 80 61 1 81 32 33 78 58 13 5 9 30 29 7 93 66 23 84 31 71 58 63 64 50 22 42 19 44 94 38 37 16 41 4 47 14 79 52 56 31 100]
